Traveling Salesman Problem/TSP_generados/Aleatorio1620390998_12.tsp
NAME: Aleatorio1620390998_12.tsp
COMMENT: Randomly generated scenario
TYPE: TSP
DIMENSION: 12
EDGE_WEIGHT_TYPE: ATT
NODE_COORD_SECTION
1 29.11 21.29
2 18.84 9.46
3 32.38 46.86
4 0.0 29.1
5 37.33 41.41
6 45.89 4.21
7 41.62 11.81
8 49.84 26.19
9 5.8 9.19
10 23.35 1.82
11 16.52 14.43
12 24.84 24.45
