Traveling Salesman Problem/TSP_generados/Aleatorio1620390998_12.opt.tour
NAME: Aleatorio1620390998_12.opt.tour
COMMENT: Optimal solution for Aleatorio1620390998_12 (178.39948994390312)
TYPE: TOUR
DIMENSION: 12
TOUR_SECTION
1 3 5 8 7 6 10 2 11 9 4 12
-1
EOF
